122     4       
14      12      12      14      
0       0       0       0       0       3       2       3       4       
4       6       0       0       0       1       9       
10      0       0       0       1       3       5       7       8       
7       0       0       5       0       1       93      
7       0       4       0       0       3       6       10      13      
3       0       0       0       10      2       17      28      
5       0       0       2       0       1       101     
2       2       0       0       0       3       12      19      48      
7       0       0       0       9       2       11      23      
9       0       5       0       0       3       21      29      40      
6       0       0       7       0       3       15      30      32      
8       0       0       0       5       1       14      
3       3       0       0       0       2       43      66      
6       0       0       3       0       3       16      18      35      
3       0       8       0       0       3       20      33      50      
2       0       0       0       10      2       53      107     
10      0       0       0       3       2       22      64      
10      6       0       0       0       1       28      
10      0       10      0       0       1       106     
1       0       0       0       8       3       27      41      61      
9       0       2       0       0       2       56      85      
4       0       0       2       0       2       53      54      
7       0       0       2       0       3       24      38      57      
9       0       0       0       7       3       25      26      44      
6       0       0       0       8       2       100     116     
7       0       0       0       8       3       34      36      67      
9       5       0       0       0       1       55      
8       0       0       0       6       2       31      80      
4       0       3       0       0       1       49      
10      0       0       7       0       3       39      43      79      
5       0       0       0       8       1       37      
8       0       0       0       9       1       46      
5       0       0       8       0       2       63      106     
1       7       0       0       0       1       72      
6       8       0       0       0       1       42      
4       0       0       0       3       1       53      
2       0       0       4       0       1       56      
10      0       0       0       9       3       62      69      87      
8       10      0       0       0       1       52      
3       0       0       0       8       3       66      77      107     
3       0       3       0       0       2       109     110     
2       0       0       9       0       1       70      
1       3       0       0       0       1       57      
5       0       0       6       0       3       45      59      71      
3       0       0       0       2       1       46      
4       2       0       0       0       3       47      51      92      
10      0       0       0       1       3       75      81      82      
6       0       0       2       0       1       58      
1       9       0       0       0       1       68      
7       0       0       5       0       1       100     
3       0       4       0       0       1       98      
10      0       0       0       10      1       115     
3       0       2       0       0       3       65      102     112     
8       0       0       0       8       1       106     
3       0       5       0       0       1       60      
6       0       3       0       0       1       72      
6       0       0       0       2       2       84      107     
2       0       0       8       0       2       77      88      
4       0       0       4       0       2       83      96      
1       0       0       3       0       1       84      
1       0       2       0       0       1       110     
2       0       0       1       0       1       76      
1       10      0       0       0       2       66      103     
9       0       0       0       3       1       74      
5       0       0       0       3       2       74      85      
9       3       0       0       0       2       91      119     
9       0       0       10      0       1       114     
3       0       1       0       0       1       78      
9       0       0       6       0       1       89      
1       4       0       0       0       1       73      
6       10      0       0       0       1       73      
7       0       3       0       0       1       90      
6       5       0       0       0       2       93      94      
10      6       0       0       0       1       95      
4       0       6       0       0       1       118     
4       5       0       0       0       1       99      
4       7       0       0       0       1       97      
2       0       0       0       3       1       98      
1       0       0       5       0       1       95      
3       10      0       0       0       2       88      90      
4       0       9       0       0       2       99      105     
10      0       0       3       0       1       89      
5       0       0       0       2       1       86      
7       0       0       5       0       1       111     
1       10      0       0       0       1       101     
6       0       0       0       9       1       94      
8       0       0       2       0       1       91      
5       1       0       0       0       1       95      
5       0       8       0       0       1       117     
10      9       0       0       0       1       109     
1       7       0       0       0       1       120     
8       6       0       0       0       1       116     
7       0       0       0       4       1       99      
4       0       0       7       0       1       97      
9       0       0       6       0       1       105     
7       1       0       0       0       1       104     
1       0       0       0       10      2       100     108     
6       4       0       0       0       1       108     
2       0       4       0       0       1       101     
7       0       10      0       0       1       121     
8       0       6       0       0       1       108     
2       0       0       0       10      1       114     
9       0       0       0       1       1       105     
2       0       0       8       0       1       112     
5       5       0       0       0       1       113     
9       0       0       0       1       1       109     
5       1       0       0       0       1       113     
5       0       1       0       0       2       115     116     
7       0       7       0       0       1       121     
2       0       9       0       0       1       114     
4       0       0       9       0       1       118     
6       0       0       0       4       2       117     118     
8       4       0       0       0       1       117     
2       0       0       7       0       1       115     
6       0       8       0       0       1       121     
10      0       0       0       5       1       119     
9       0       0       5       0       2       119     120     
3       0       0       0       3       1       120     
4       0       0       0       3       1       122     
7       0       0       10      0       1       122     
4       9       0       0       0       1       122     
0       0       0       0       0       0       